# Objective value = 3.0635349374933776e+02
x[0] 1
x[1] 0
x[2] 1
x[3] 0
x[4] 1
x[5] 0
x[6] 0
x[7] 0
x[8] 1
x[9] 1
x[10] 0
x[11] 1
x[12] 0
x[13] 0
x[14] 0
x[15] 0
x[16] 1
x[17] -2.45371135685812e-07
x[18] 1
x[19] 0
x[20] 0
x[21] 1
x[22] 0
x[23] 1
x[24] 1
x[25] 0
x[26] 0
x[27] 1
x[28] 1
x[29] 1
x[30] 1
x[31] 0
x[32] 1
x[33] 0
x[34] 0
x[35] 0
x[36] 0
x[37] 0
x[38] 0
x[39] 1
x[40] 1.0000002486048158e+00
x[41] 1
x[42] 1
x[43] 1
x[44] 1
x[45] 0
x[46] 0
x[47] 1
x[48] 1
x[49] 1
x[50] 1
x[51] 0
x[52] 0
x[53] 1
x[54] 0
x[55] 1
x[56] 0
x[57] 0
x[58] 0
x[59] 1
x[60] 1
x[61] 0
x[62] 1
x[63] 1
x[64] 0
x[65] 9.9999977439239829e-01
x[66] 1
x[67] 0
x[68] 1.0000002301853188e+00
x[69] 1
x[70] 1
x[71] 1
x[72] 0
x[73] 1
x[74] 1
x[75] 0
x[76] 0
x[77] 1
x[78] 0
x[79] 1
x[80] 1
x[81] 0
x[82] 0
x[83] 0
x[84] 0
x[85] 0
x[86] 1
x[87] 0
x[88] 0
x[89] 1
x[90] 0
x[91] 0
x[92] 0
x[93] 1
x[94] 0
x[95] 1.0000002485505151e+00
x[96] 1
x[97] 1
x[98] 0
x[99] 1
x[100] 0
x[101] 1
x[102] -2.4870446901914534e-07
x[103] 2.3027085639994706e-07
x[104] 0
x[105] -2.2717324782253153e-07
x[106] 0
x[107] 1
x[108] 0
x[109] 2.2990981382062594e-07
x[110] 0
x[111] 1
x[112] 0
x[113] 1
x[114] 0
x[115] 0
x[116] 0
x[117] 1
x[118] 1
x[119] 0
x[120] 1
x[121] -2.2717324782253153e-07
x[122] 1
x[123] 1
x[124] 1
x[125] 0
x[126] 1
x[127] 1
x[128] 1
x[129] 9.9999977235056170e-01
x[130] 1
x[131] 1
x[132] 1
x[133] 0
x[134] 1
x[135] 0
x[136] 0
x[137] 1
x[138] 1
x[139] 1
x[140] 0
x[141] 0
x[142] 0
x[143] 0
x[144] 0
x[145] 0
x[146] 1
x[147] 0
x[148] 0
x[149] 0
x[150] 1
x[151] 0
x[152] 1.0000002482528243e+00
x[153] 0
x[154] 0
x[155] 1
x[156] 0
x[157] 0
x[158] 0
x[159] 0
x[160] 0
x[161] 1
x[162] 1
x[163] 0
x[164] 1
x[165] 1
x[166] 1
x[167] 1
x[168] 1
x[169] 0
x[170] 0
x[171] 1
x[172] 0
x[173] 1
x[174] 1
x[175] 1
x[176] 1
x[177] 1
x[178] 1
x[179] 0
x[180] 1
x[181] 1
x[182] 1
x[183] 0
x[184] 0
x[185] 1
x[186] 0
x[187] 0
x[188] 0
x[189] 1
x[190] 1
x[191] 1
x[192] 1
x[193] 0
x[194] 0
x[195] 0
x[196] 1.0000002304009503e+00
x[197] 1
x[198] 0
x[199] 1
x[200] 0
x[201] 1
x[202] 0
x[203] 1
x[204] 1
x[205] 1
x[206] 0
x[207] 1
x[208] 1
x[209] 1
x[210] 0
x[211] 1
x[212] 0
x[213] 0
x[214] 1
x[215] 0
x[216] 0
x[217] 1
x[218] 0
x[219] 1
x[220] 1
x[221] 2.3030950958853402e-07
x[222] 9.9999977449341881e-01
x[223] 0
x[224] 1.0000002303837823e+00
x[225] 1
x[226] 9.9999975462886437e-01
x[227] 1
x[228] 0
x[229] 1
x[230] 0
x[231] 1
x[232] 1
x[233] 1
x[234] 0
x[235] 1
x[236] 1
x[237] 1
x[238] 1
x[239] 1
x[240] 1
x[241] 0
x[242] 1
x[243] 1
x[244] 0
x[245] 0
x[246] 0
x[247] 1
x[248] 1
x[249] 0
x[250] 0
x[251] 0
x[252] 1
x[253] 1
x[254] 0
x[255] 0
x[256] 1
x[257] 0
x[258] 0
x[259] 0
x[260] 0
x[261] 0
x[262] 1
x[263] 1
x[264] 1
x[265] 0
x[266] 1
x[267] 1
x[268] 0
x[269] -2.4370446901914533e-07
x[270] 1
x[271] -2.4370446901914533e-07
x[272] 1
x[273] 0
x[274] 1
x[275] 1
x[276] 0
x[277] 0
x[278] 1
x[279] 1
x[280] 1
x[281] 0
x[282] 1
x[283] 0
x[284] 0
x[285] 0
x[286] 0
x[287] 1
x[288] 1
x[289] 1
x[290] 0
x[291] 0
x[292] 0
x[293] 0
x[294] 0
x[295] 2.3037253933972378e-07
x[296] 0
x[297] 1
x[298] 1
x[299] 0
x[300] 1
x[301] 0
x[302] 0
x[303] 1
x[304] 1
x[305] 0
x[306] 1
x[307] 1
x[308] 1
x[309] 0
x[310] 1
x[311] 1
x[312] 0
x[313] 0
x[314] 0
x[315] 1
x[316] 1
x[317] 1
x[318] 1
x[319] 1
x[320] 1
x[321] 0
x[322] 0
x[323] 1
x[324] 0
x[325] 1
x[326] 1
x[327] 1
x[328] 0
x[329] 1
x[330] 1
x[331] 0
x[332] 0
x[333] 0
x[334] 0
x[335] 0
x[336] 1
x[337] 1
x[338] 1
x[339] 0
x[340] 0
x[341] 1
x[342] 1
x[343] 0
x[344] 1.0000004972812171e+00
x[345] 1
x[346] 1
x[347] 1
x[348] 0
x[349] 0
x[350] 0
x[351] 0
x[352] 0
x[353] 0
x[354] 0
x[355] 1
x[356] 1
x[357] 1
x[358] 0
x[359] 1
x[360] 1
x[361] 0
x[362] 9.9999977282675223e-01
x[363] 0
x[364] 0
x[365] 0
x[366] 1
x[367] 1
x[368] 0
x[369] 0
x[370] 0
x[371] 0
x[372] 1
x[373] 1
x[374] 1
x[375] 0
x[376] 1
x[377] 0
x[378] 1
x[379] 0
x[380] 1
x[381] 1.0000002485650492e+00
x[382] 2.3037828119932915e-07
x[383] 1
x[384] 0
x[385] 0
x[386] 1
x[387] 1
x[388] 1
x[389] 0
x[390] 1
x[391] 1
x[392] 1
x[393] 0
x[394] 1
x[395] 0
x[396] 1
x[397] 1
x[398] 0
x[399] 1
x[400] 0
x[401] 1
x[402] 1
x[403] 0
x[404] 0
x[405] 1
x[406] 1
x[407] 1
x[408] 0
x[409] 1
x[410] 0
x[411] 0
x[412] 1
x[413] 1
x[414] 0
x[415] 1
x[416] 1
x[417] 0
x[418] 0
x[419] 9.9999977282675234e-01
x[420] 1
x[421] 1
x[422] 1
x[423] 1
x[424] 0
x[425] 0
x[426] 0
x[427] 1
x[428] 1
x[429] 0
x[430] 0
x[431] 0
x[432] 1
x[433] 1
x[434] 0
x[435] 0
x[436] 0
x[437] 1
x[438] 1
x[439] -4.6101316231172973e-07
x[440] 1
x[441] 9.9999976949341884e-01
x[442] 0
x[443] 0
x[444] 1
x[445] 0
x[446] 0
x[447] 1
x[448] 0
x[449] 1
x[450] 1
x[451] 0
x[452] 1
x[453] 1
x[454] 0
x[455] 1
x[456] 9.9999977449341881e-01
x[457] 1
x[458] 1
x[459] 1
x[460] 0
x[461] 1
x[462] 0
x[463] 0
x[464] 0
x[465] 1
x[466] 0
x[467] 0
x[468] 1
x[469] 0
x[470] 1
x[471] 1
x[472] 1
x[473] 0
x[474] -2.4870446896458180e-07
x[475] 0
x[476] 0
x[477] 0
x[478] 0
x[479] 1
x[480] 0
x[481] 0
x[482] 0
x[483] 1
x[484] 1
x[485] 2.3025698204873829e-07
x[486] 0
x[487] 1
x[488] 0
x[489] 1
x[490] 0
x[491] 0
x[492] 1
x[493] -4.9407560470495733e-07
x[494] 1
x[495] 2.3035064288025262e-07
x[496] 0
x[497] 1
x[498] 0
x[499] 0
x[500] 0
x[501] -2.4521718162686379e-07
x[502] 1
x[503] 0
x[504] 1
x[505] 0
x[506] 0
x[507] 1
x[508] 1
x[509] 0
x[510] 1
x[511] 0
x[512] 0
x[513] 0
x[514] 0
x[515] 1
x[516] 1
x[517] 1
x[518] 1
x[519] 1
x[520] 0
x[521] 0
x[522] 1
x[523] 1
x[524] 0
x[525] 0
x[526] 1
x[527] 0
x[528] 0
x[529] 1
x[530] 1
x[531] 0
x[532] 0
x[533] 0
x[534] 0
x[535] 1
x[536] -2.4633840302969062e-07
x[537] 0
x[538] 0
x[539] 0
x[540] 0
x[541] 0
x[542] 0
x[543] 0
x[544] 1
x[545] 0
x[546] 1
x[547] 0
x[548] 0
x[549] 0
x[550] 1
x[551] 0
x[552] 1.0000002485607853e+00
x[553] 0
x[554] 0
x[555] 0
x[556] 1
x[557] 0
x[558] 1
x[559] 1
x[560] 0
x[561] 1
x[562] 1
x[563] 0
x[564] 0
x[565] 0
x[566] 0
x[567] 0
x[568] 1
x[569] 0
x[570] 2.2986211583255307e-07
x[571] 1
x[572] 0
x[573] 0
x[574] 0
x[575] 0
x[576] 1
x[577] 1.0000002454223138e+00
x[578] 1
x[579] 0
x[580] 1
x[581] 9.9999977449341881e-01
x[582] 1
x[583] 0
x[584] 9.9999977294955111e-01
x[585] 0
x[586] 0
x[587] 1
x[588] 1
x[589] 0
x[590] 1
x[591] 0
x[592] 1
x[593] 1
x[594] 0
x[595] 0
x[596] 0
x[597] 1
x[598] 0
x[599] 1
x[600] 0
x[601] 0
x[602] 0
x[603] 1
x[604] 1
x[605] 0
x[606] 0
x[607] 1
x[608] 0
x[609] 0
x[610] 1
x[611] 1
x[612] 1
x[613] 0
x[614] 1
x[615] 0
x[616] 9.9999976949341884e-01
x[617] 0
x[618] 1
x[619] 1
x[620] 1
x[621] 0
x[622] 0
x[623] 0
x[624] 0
x[625] 0
x[626] 1
x[627] 1
x[628] 1
x[629] 0
x[630] 1
x[631] 0
x[632] 0
x[633] 0
x[634] 1
x[635] -2.4370446979630145e-07
x[636] 0
x[637] 1
x[638] 2.3025337756155998e-07
x[639] 0
x[640] 1
x[641] 0
x[642] 0
x[643] 0
x[644] 1
x[645] 0
x[646] 1
x[647] 0
x[648] 0
x[649] 2.3019926278054812e-07
x[650] -2.2550658115586486e-07
x[651] 1
x[652] 0
x[653] 1
x[654] 0
x[655] 1
x[656] 0
x[657] 0
x[658] 1
x[659] 1
x[660] 1
x[661] 1
x[662] 9.9999977282675223e-01
x[663] -7.4278008749086818e-07
x[664] 0
x[665] 0
x[666] 1
x[667] 0
x[668] 1
x[669] 0
x[670] 1
x[671] 1
x[672] 1
x[673] 1
x[674] 0
x[675] 0
x[676] 0
x[677] 1
x[678] 0
x[679] 1
x[680] 1
x[681] 0
x[682] 0
x[683] 0
x[684] 0
x[685] 0
x[686] 1
x[687] 1
x[688] 0
x[689] 9.9999977298269038e-01
x[690] 1
x[691] 0
x[692] 0
x[693] 0
x[694] 0
x[695] 0
x[696] 0
x[697] 0
x[698] 1
x[699] 1.0000004961770168e+00
x[700] 0
x[701] 1
x[702] 0
x[703] 0
x[704] 0
x[705] 1
x[706] 0
x[707] 1
x[708] 0
x[709] 0
x[710] 1
x[711] 1
x[712] 1
x[713] 1.0000002479044507e+00
x[714] 1
x[715] 1
x[716] 1
x[717] 1
x[718] 0
x[719] 0
x[720] 0
x[721] 0
x[722] 1
x[723] 1
x[724] 1
x[725] 1
x[726] 0
x[727] 0
x[728] 0
x[729] 1.0000002303584450e+00
x[730] 1
x[731] -2.4870446901914534e-07
x[732] 0
x[733] 1
x[734] 0
x[735] 1.3970473475838050e-07
x[736] 0
x[737] 0
x[738] 2.3039512138612681e-07
x[739] 1
x[740] 1
x[741] 1
x[742] 1
x[743] 1
x[744] 1
x[745] 1
x[746] 1
x[747] 1
x[748] 1
x[749] 1
x[750] 0
x[751] 0
x[752] 1
x[753] 0
x[754] 0
x[755] 1
x[756] 0
x[757] 1
x[758] 1
x[759] 0
x[760] 1
x[761] 0
x[762] 1
x[763] 1
x[764] 0
x[765] 1.0000002300963216e+00
x[766] 0
x[767] 1
x[768] 0
x[769] 0
x[770] 1
x[771] 1
x[772] 1
x[773] 1
x[774] 1
x[775] 0
x[776] 0
x[777] 1
x[778] 1
x[779] 1
x[780] 1
x[781] -7.4111342082420156e-07
x[782] 1
x[783] 0
x[784] 0
x[785] 1
x[786] 0
x[787] 1
x[788] 1
x[789] 0
x[790] 1
x[791] 0
x[792] 0
x[793] 1
x[794] 1
x[795] 1.0000004970106304e+00
x[796] 1
x[797] 0
x[798] 0
x[799] 1
x[800] 1
x[801] 1
x[802] 1
x[803] 0
x[804] 0
x[805] 0
x[806] 0
x[807] 2.3016505721834865e-07
x[808] 1.0000002484173796e+00
x[809] 0
x[810] 2.3038681553400268e-07
x[811] 0
x[812] -2.45371135685812e-07
x[813] 0
x[814] 0
x[815] 1
x[816] 1
x[817] 1
x[818] 0
x[819] 0
x[820] 1.0000002485813113e+00
x[821] 0
x[822] 1
x[823] 1
x[824] 1
x[825] 1
x[826] 0
x[827] 1
x[828] 0
x[829] 1
x[830] 1
x[831] 0
x[832] 1
x[833] 1
x[834] 0
x[835] 0
x[836] 0
x[837] 1
x[838] 1
x[839] 1
x[840] 0
x[841] -2.4522745194490591e-07
x[842] 0
x[843] 0
x[844] 1
x[845] 0
x[846] 0
x[847] 0
x[848] 1
x[849] 0
x[850] -4.9740893803829067e-07
x[851] 0
x[852] 1
x[853] 0
x[854] 1
x[855] 1
x[856] 0
x[857] -2.4370446901914533e-07
x[858] 0
x[859] 1
x[860] 0
x[861] 0
x[862] 1
x[863] 9.9999976949341884e-01
x[864] 0
x[865] 1
x[866] 1
x[867] 1
x[868] 0
x[869] 0
x[870] 1
x[871] 1
x[872] 0
x[873] 0
x[874] 1
x[875] 0
x[876] 0
x[877] 1
x[878] 0
x[879] 1
x[880] 1
x[881] 0
x[882] 0
x[883] 0
x[884] 1
x[885] 1
x[886] 1
x[887] 1
x[888] 1
x[889] 0
x[890] 1
x[891] 1
x[892] 1
x[893] 1
x[894] 0
x[895] 1.0000002484781598e+00
x[896] 1.00000024847443
x[897] 0
x[898] 1.0000007460084921e+00
x[899] -2.3050658115586486e-07
x[900] 1
x[901] 1
x[902] 0
x[903] 1
x[904] 1
x[905] 0
x[906] 1
x[907] 0
x[908] 0
x[909] 0
x[910] 0
x[911] 0
x[912] 2.3026347354491922e-07
x[913] 0
x[914] 0
x[915] 1
x[916] -4.9740893803829067e-07
x[917] 0
x[918] 0
x[919] 1
x[920] 1
x[921] 0
x[922] 0
x[923] 0
x[924] 1
x[925] 2.48488851307733e-07
x[926] 0
x[927] -7.4267515878507893e-07
x[928] 1
x[929] 0
x[930] 1
x[931] 0
x[932] 0
x[933] 1.0000002486006097e+00
x[934] 1
x[935] 0
x[936] 1
x[937] 1
x[938] 0
x[939] 1
x[940] 1
x[941] 1
x[942] 0
x[943] 0
x[944] 1
x[945] 1
x[946] 1
x[947] 0
x[948] 1
x[949] 0
x[950] 0
x[951] 1
x[952] 0
x[953] 1
x[954] 2.3029275602655760e-07
x[955] 0
x[956] 1
x[957] 0
x[958] 1
x[959] 0
x[960] 1
x[961] 0
x[962] 0
x[963] 1
x[964] 1
x[965] 1
x[966] 1
x[967] 0
x[968] 0
x[969] 2.3034159849079843e-07
x[970] 1
x[971] 0
x[972] 2.4827343210657267e-07
x[973] 0
x[974] 0
x[975] 0
x[976] 0
x[977] 1
x[978] 1
x[979] 0
x[980] 1
x[981] 1
x[982] -2.4870446900312148e-07
x[983] 0
x[984] 0
x[985] 1.0000004972703782e+00
x[986] -2.2550658115586486e-07
x[987] 1
x[988] 0
x[989] 0
x[990] 2.3026978965310360e-07
x[991] 1
x[992] 0
x[993] 1
x[994] 1
x[995] 0
x[996] 1
x[997] 0
x[998] 0
x[999] 0
